Geographic Exponential Decay
20 285 131 43 246 185 21 295 39 252 83 103 163 93 36 307 255 265 281 44 172
p edge 320 595
e 0 215 2.0
e 1 23 1.0
e 2 11 1.0
e 3 289 1.0
e 4 157 4.0
e 5 191 3.0
e 5 224 3.0
e 6 311 3.0
e 7 304 5.0
e 8 160 1.0
e 9 160 5.0
e 9 25 5.0
e 10 0 2.0
e 12 92 5.0
e 13 96 16.0
e 13 287 9.0
e 13 34 5.0
e 13 203 23.0
e 13 95 3.0
e 14 256 2.0
e 15 164 36.0
e 15 65 41.0
e 15 177 25.0
e 15 39 69.0
e 15 77 7.0
e 15 60 16.0
e 15 197 41.0
e 15 20 30.0
e 15 219 38.0
e 16 46 3.0
e 17 221 2.0
e 18 73 2.0
e 18 215 5.0
e 19 203 5.0
e 19 188 24.0
e 20 260 5.0
e 21 95 20.0
e 21 2 82.0
e 21 113 14.0
e 21 80 16.0
e 21 125 18.0
e 21 157 93.0
e 21 136 27.0
e 21 34 98.0
e 21 110 54.0
e 21 186 88.0
e 21 54 83.0
e 21 147 30.0
e 21 166 26.0
e 21 87 13.0
e 21 109 15.0
e 21 148 52.0
e 21 274 36.0
e 22 118 1.0
e 24 111 3.0
e 26 298 1.0
e 27 161 3.0
e 28 94 1.0
e 29 2 2.0
e 30 173 2.0
e 31 217 5.0
e 32 201 2.0
e 33 0 1.0
e 35 48 1.0
e 36 302 86.0
e 36 245 41.0
e 36 241 88.0
e 36 191 36.0
e 36 295 61.0
e 36 139 10.0
e 36 259 54.0
e 36 168 77.0
e 36 11 55.0
e 36 189 22.0
e 36 148 80.0
e 36 207 23.0
e 36 125 2.0
e 36 177 11.0
e 36 69 21.0
e 36 215 23.0
e 36 166 46.0
e 37 119 2.0
e 38 286 16.0
e 38 308 24.0
e 38 228 22.0
e 38 184 11.0
e 38 197 16.0
e 39 104 20.0
e 39 182 53.0
e 39 293 52.0
e 39 222 46.0
e 39 190 51.0
e 39 216 82.0
e 39 56 76.0
e 39 110 61.0
e 39 34 32.0
e 39 189 1.0
e 39 155 84.0
e 39 228 46.0
e 39 309 52.0
e 39 92 38.0
e 39 109 81.0
e 39 46 58.0
e 40 114 1.0
e 40 312 6.0
e 41 104 5.0
e 41 283 5.0
e 42 168 11.0
e 42 163 9.0
e 42 30 9.0
e 43 90 76.0
e 43 159 24.0
e 43 309 82.0
e 43 133 99.0
e 43 224 70.0
e 43 268 64.0
e 43 94 52.0
e 43 300 33.0
e 43 97 71.0
e 43 109 17.0
e 43 257 60.0
e 43 70 68.0
e 43 241 79.0
e 43 98 68.0
e 43 276 25.0
e 43 12 45.0
e 43 176 22.0
e 44 7 12.0
e 44 239 69.0
e 44 98 21.0
e 44 6 90.0
e 44 275 36.0
e 44 220 70.0
e 44 205 88.0
e 44 17 25.0
e 44 85 85.0
e 44 135 15.0
e 44 92 98.0
e 44 107 33.0
e 44 139 73.0
e 44 109 53.0
e 44 263 92.0
e 44 262 65.0
e 44 9 6.0
e 45 302 4.0
e 45 273 1.0
e 47 177 5.0
e 47 79 3.0
e 49 38 16.0
e 50 123 1.0
e 51 110 1.0
e 51 89 1.0
e 52 303 9.0
e 52 19 7.0
e 52 38 19.0
e 53 67 1.0
e 54 180 4.0
e 54 314 12.0
e 55 205 2.0
e 57 111 1.0
e 58 128 6.0
e 59 62 2.0
e 61 115 18.0
e 63 294 5.0
e 64 108 5.0
e 64 252 85.0
e 66 221 1.0
e 67 233 3.0
e 68 209 6.0
e 71 275 3.0
e 71 53 1.0
e 72 158 1.0
e 74 102 1.0
e 75 235 4.0
e 75 74 3.0
e 76 215 1.0
e 78 247 1.0
e 78 0 1.0
e 79 126 5.0
e 81 222 4.0
e 81 309 2.0
e 82 170 1.0
e 83 95 53.0
e 83 48 98.0
e 83 235 4.0
e 83 210 34.0
e 83 236 74.0
e 83 250 59.0
e 83 294 100.0
e 83 213 53.0
e 83 159 89.0
e 83 101 29.0
e 83 71 59.0
e 83 187 56.0
e 83 58 16.0
e 83 293 72.0
e 83 28 9.0
e 83 142 52.0
e 83 162 28.0
e 84 126 1.0
e 84 37 12.0
e 84 144 9.0
e 85 32 4.0
e 86 227 1.0
e 88 39 27.0
e 89 121 7.0
e 89 258 2.0
e 91 241 1.0
e 91 114 2.0
e 93 115 50.0
e 93 243 89.0
e 93 127 43.0
e 93 244 61.0
e 93 210 55.0
e 93 111 42.0
e 93 273 46.0
e 93 81 27.0
e 93 108 5.0
e 93 245 18.0
e 93 19 70.0
e 93 318 31.0
e 93 292 25.0
e 93 102 22.0
e 93 49 24.0
e 93 158 44.0
e 93 65 56.0
e 97 164 4.0
e 97 239 5.0
e 97 70 2.0
e 97 231 5.0
e 98 55 10.0
e 99 137 4.0
e 100 221 1.0
e 103 2 19.0
e 103 297 82.0
e 103 176 31.0
e 103 3 76.0
e 103 11 1.0
e 103 291 18.0
e 103 310 77.0
e 103 277 20.0
e 103 150 22.0
e 103 317 44.0
e 103 149 40.0
e 103 228 41.0
e 103 133 23.0
e 103 318 28.0
e 103 278 63.0
e 103 138 23.0
e 103 170 32.0
e 105 306 1.0
e 106 147 3.0
e 106 51 1.0
e 107 142 1.0
e 112 34 3.0
e 112 146 4.0
e 115 285 63.0
e 115 101 11.0
e 115 255 6.0
e 115 126 9.0
e 115 171 1.0
e 115 62 40.0
e 115 54 9.0
e 116 91 5.0
e 117 54 1.0
e 117 312 1.0
e 118 31 4.0
e 119 299 1.0
e 120 229 6.0
e 121 234 1.0
e 122 107 1.0
e 124 172 64.0
e 124 306 3.0
e 127 313 1.0
e 128 298 5.0
e 129 192 4.0
e 130 287 5.0
e 130 15 18.0
e 131 38 17.0
e 131 73 66.0
e 131 120 71.0
e 131 175 27.0
e 131 25 97.0
e 131 107 94.0
e 131 39 48.0
e 131 56 32.0
e 131 5 16.0
e 131 136 84.0
e 131 263 77.0
e 131 11 14.0
e 131 9 65.0
e 131 193 56.0
e 131 130 87.0
e 131 6 45.0
e 131 313 52.0
e 132 226 1.0
e 134 210 2.0
e 134 27 1.0
e 135 159 3.0
e 137 303 5.0
e 139 147 4.0
e 139 61 16.0
e 139 178 16.0
e 140 61 2.0
e 141 300 18.0
e 141 111 5.0
e 141 64 8.0
e 141 13 8.0
e 141 128 16.0
e 143 196 5.0
e 143 210 2.0
e 144 165 3.0
e 145 317 1.0
e 146 206 2.0
e 149 182 5.0
e 151 39 14.0
e 152 219 2.0
e 153 144 3.0
e 153 25 7.0
e 153 315 6.0
e 154 62 36.0
e 154 265 40.0
e 154 71 26.0
e 154 278 32.0
e 154 0 18.0
e 154 1 44.0
e 154 56 16.0
e 154 172 8.0
e 154 283 26.0
e 155 143 5.0
e 156 81 1.0
e 157 147 6.0
e 163 34 26.0
e 163 214 62.0
e 163 122 96.0
e 163 91 78.0
e 163 303 25.0
e 163 142 25.0
e 163 12 11.0
e 163 222 20.0
e 163 13 30.0
e 163 119 11.0
e 163 139 17.0
e 163 216 27.0
e 163 272 83.0
e 163 156 10.0
e 163 53 3.0
e 163 9 59.0
e 165 163 18.0
e 167 59 2.0
e 168 76 4.0
e 169 105 2.0
e 172 305 11.0
e 172 58 5.0
e 172 216 16.0
e 172 143 29.0
e 172 277 17.0
e 172 255 10.0
e 172 40 50.0
e 172 313 6.0
e 172 243 66.0
e 172 156 36.0
e 172 145 18.0
e 172 43 74.0
e 172 115 94.0
e 172 294 2.0
e 172 195 61.0
e 174 100 2.0
e 178 35 11.0
e 178 186 1.0
e 179 101 6.0
e 179 188 8.0
e 181 3 2.0
e 183 160 2.0
e 185 80 33.0
e 185 104 95.0
e 185 203 82.0
e 185 148 89.0
e 185 61 58.0
e 185 207 27.0
e 185 154 52.0
e 185 196 8.0
e 185 137 12.0
e 185 223 39.0
e 185 3 76.0
e 185 96 53.0
e 185 146 35.0
e 185 162 75.0
e 185 149 42.0
e 185 231 97.0
e 185 108 4.0
e 188 23 18.0
e 188 175 18.0
e 188 192 19.0
e 192 120 3.0
e 194 212 4.0
e 198 179 1.0
e 199 129 1.0
e 200 226 3.0
e 201 195 4.0
e 202 114 1.0
e 204 180 1.0
e 208 135 4.0
e 209 140 8.0
e 209 307 29.0
e 209 191 15.0
e 209 63 4.0
e 211 202 1.0
e 212 254 4.0
e 217 97 18.0
e 218 266 1.0
e 218 8 5.0
e 224 123 5.0
e 225 281 51.0
e 227 115 13.0
e 229 306 4.0
e 229 236 11.0
e 230 248 18.0
e 231 275 10.0
e 232 33 4.0
e 232 292 5.0
e 234 211 1.0
e 237 268 1.0
e 238 157 3.0
e 240 27 1.0
e 242 318 6.0
e 246 211 87.0
e 246 296 55.0
e 246 86 5.0
e 246 157 63.0
e 246 32 56.0
e 246 12 69.0
e 246 155 62.0
e 246 194 47.0
e 246 192 18.0
e 246 287 67.0
e 246 213 45.0
e 246 94 13.0
e 246 83 10.0
e 246 30 42.0
e 246 258 35.0
e 246 270 25.0
e 246 109 64.0
e 248 202 19.0
e 248 66 5.0
e 248 282 16.0
e 248 314 18.0
e 249 224 8.0
e 251 315 1.0
e 252 128 24.0
e 252 236 89.0
e 252 318 19.0
e 252 315 44.0
e 252 181 25.0
e 252 258 7.0
e 252 95 59.0
e 252 79 93.0
e 252 225 74.0
e 252 311 9.0
e 252 129 24.0
e 252 50 79.0
e 252 90 39.0
e 252 226 58.0
e 252 49 82.0
e 252 274 31.0
e 253 96 1.0
e 254 183 3.0
e 255 89 84.0
e 255 135 53.0
e 255 300 27.0
e 255 30 58.0
e 255 31 16.0
e 255 204 69.0
e 255 154 86.0
e 255 194 51.0
e 255 150 56.0
e 255 231 83.0
e 255 201 56.0
e 255 117 55.0
e 255 148 28.0
e 255 105 51.0
e 255 69 32.0
e 256 158 3.0
e 257 53 6.0
e 259 246 52.0
e 259 22 10.0
e 261 193 1.0
e 264 96 1.0
e 265 259 42.0
e 265 239 39.0
e 265 92 6.0
e 265 198 35.0
e 265 217 3.0
e 265 137 61.0
e 265 151 69.0
e 265 142 21.0
e 265 312 57.0
e 265 131 63.0
e 265 175 41.0
e 265 166 34.0
e 265 127 34.0
e 265 20 36.0
e 265 149 97.0
e 265 47 95.0
e 266 143 5.0
e 267 230 2.0
e 269 200 1.0
e 269 37 3.0
e 271 135 6.0
e 272 166 3.0
e 274 289 3.0
e 276 168 20.0
e 276 22 13.0
e 276 17 15.0
e 276 97 17.0
e 279 312 5.0
e 280 255 5.0
e 281 201 16.0
e 281 237 14.0
e 281 227 61.0
e 281 273 20.0
e 281 241 90.0
e 281 107 98.0
e 281 116 9.0
e 281 24 87.0
e 281 277 36.0
e 281 163 9.0
e 281 208 14.0
e 281 31 29.0
e 281 16 15.0
e 281 276 68.0
e 281 133 1.0
e 281 223 31.0
e 282 286 5.0
e 283 58 8.0
e 284 59 3.0
e 284 51 1.0
e 285 255 92.0
e 285 15 30.0
e 285 153 79.0
e 285 1 35.0
e 285 42 59.0
e 285 283 15.0
e 285 35 88.0
e 285 183 77.0
e 285 303 88.0
e 285 185 82.0
e 285 316 33.0
e 285 276 16.0
e 285 164 18.0
e 285 186 12.0
e 285 43 27.0
e 285 88 66.0
e 288 141 20.0
e 290 110 5.0
e 291 113 6.0
e 295 40 19.0
e 295 188 8.0
e 295 48 54.0
e 295 144 90.0
e 295 318 11.0
e 295 128 84.0
e 295 228 83.0
e 295 15 82.0
e 295 27 97.0
e 295 114 69.0
e 295 101 80.0
e 295 282 36.0
e 295 121 26.0
e 295 13 91.0
e 295 67 94.0
e 295 296 23.0
e 297 59 5.0
e 299 304 1.0
e 301 158 1.0
e 307 269 15.0
e 307 317 61.0
e 307 41 91.0
e 307 254 70.0
e 307 120 37.0
e 307 226 86.0
e 307 311 20.0
e 307 289 17.0
e 307 133 44.0
e 307 268 74.0
e 307 282 49.0
e 307 181 55.0
e 307 117 82.0
e 307 278 22.0
e 307 304 62.0
e 307 14 88.0
e 308 100 7.0
e 308 271 3.0
e 316 144 5.0
e 319 49 1.0
